\ Model CVRP formulation
\ LP format - for model browsing. Use MPS format to capture full model detail.
Minimize
  2217 x[1,2] + 1343 x[1,3] + 1290 x[1,4] + 3650 x[1,5] + 2853 x[1,6]
   + 1720 x[1,7] + 2607 x[1,8] + 2385 x[1,9] + 207 x[1,10] + 3650 x[1,11]
   + 3388 x[1,12] + 1413 x[1,13] + 412 x[1,14] + 3210 x[1,15] + 2220 x[2,1]
   + 899 x[2,3] + 2918 x[2,4] + 2825 x[2,5] + 2342 x[2,6] + 1842 x[2,7]
   + 2914 x[2,8] + 3142 x[2,9] + 2030 x[2,10] + 3018 x[2,11] + 2696 x[2,12]
   + 929 x[2,13] + 2229 x[2,14] + 3267 x[2,15] + 1338 x[3,1] + 903 x[3,2]
   + 2218 x[3,4] + 3100 x[3,5] + 2440 x[3,6] + 1311 x[3,7] + 2693 x[3,8]
   + 2758 x[3,9] + 1148 x[3,10] + 3221 x[3,11] + 2915 x[3,12] + 232 x[3,13]
   + 1413 x[3,14] + 3181 x[3,15] + 1282 x[4,1] + 2918 x[4,2] + 2219 x[4,3]
   + 3198 x[4,5] + 2407 x[4,6] + 2978 x[4,7] + 1756 x[4,8] + 1325 x[4,9]
   + 1414 x[4,10] + 3083 x[4,11] + 2916 x[4,12] + 2382 x[4,13]
   + 926 x[4,14] + 2347 x[4,15] + 3643 x[5,1] + 2822 x[5,2] + 3105 x[5,3]
   + 3199 x[5,4] + 814 x[5,6] + 4403 x[5,7] + 1619 x[5,8] + 2197 x[5,9]
   + 3575 x[5,10] + 321 x[5,11] + 283 x[5,12] + 3306 x[5,13] + 3312 x[5,14]
   + 1317 x[5,15] + 2851 x[6,1] + 2336 x[6,2] + 2439 x[6,3] + 2412 x[6,4]
   + 811 x[6,5] + 3742 x[6,7] + 1009 x[6,8] + 1557 x[6,9] + 2791 x[6,10]
   + 809 x[6,11] + 542 x[6,12] + 2655 x[6,13] + 2507 x[6,14] + 1038 x[6,15]
   + 1723 x[7,1] + 1840 x[7,2] + 1306 x[7,3] + 2974 x[7,4] + 4406 x[7,5]
   + 3733 x[7,6] + 3905 x[7,8] + 3867 x[7,9] + 1562 x[7,10] + 4523 x[7,11]
   + 4216 x[7,12] + 1102 x[7,13] + 2052 x[7,14] + 4433 x[7,15]
   + 2611 x[8,1] + 2912 x[8,2] + 2693 x[8,3] + 1756 x[8,4] + 1615 x[8,5]
   + 1013 x[8,6] + 3905 x[8,7] + 583 x[8,9] + 2619 x[8,10] + 1421 x[8,11]
   + 1341 x[8,12] + 2916 x[8,13] + 2210 x[8,14] + 614 x[8,15] + 2380 x[9,1]
   + 3145 x[9,2] + 2767 x[9,3] + 1323 x[9,4] + 2199 x[9,5] + 1558 x[9,6]
   + 3865 x[9,7] + 583 x[9,8] + 2435 x[9,10] + 2006 x[9,11] + 1924 x[9,12]
   + 2980 x[9,13] + 1965 x[9,14] + 1088 x[9,15] + 203 x[10,1]
   + 2031 x[10,2] + 1147 x[10,3] + 1414 x[10,4] + 3574 x[10,5]
   + 2789 x[10,6] + 1572 x[10,7] + 2621 x[10,8] + 2438 x[10,9]
   + 3598 x[10,11] + 3332 x[10,12] + 1209 x[10,13] + 509 x[10,14]
   + 3211 x[10,15] + 3641 x[11,1] + 3010 x[11,2] + 3219 x[11,3]
   + 3082 x[11,4] + 318 x[11,5] + 810 x[11,6] + 4524 x[11,7] + 1422 x[11,8]
   + 2001 x[11,9] + 3594 x[11,10] + 326 x[11,12] + 3426 x[11,13]
   + 3290 x[11,14] + 1053 x[11,15] + 3389 x[12,1] + 2702 x[12,2]
   + 2906 x[12,3] + 2908 x[12,4] + 289 x[12,5] + 541 x[12,6] + 4215 x[12,7]
   + 1348 x[12,8] + 1930 x[12,9] + 3328 x[12,10] + 322 x[12,11]
   + 3114 x[12,13] + 3046 x[12,14] + 1105 x[12,15] + 1405 x[13,1]
   + 924 x[13,2] + 229 x[13,3] + 2381 x[13,4] + 3301 x[13,5] + 2647 x[13,6]
   + 1101 x[13,7] + 2919 x[13,8] + 2976 x[13,9] + 1214 x[13,10]
   + 3432 x[13,11] + 3117 x[13,12] + 1538 x[13,14] + 3401 x[13,15]
   + 415 x[14,1] + 2221 x[14,2] + 1411 x[14,3] + 929 x[14,4] + 3313 x[14,5]
   + 2507 x[14,6] + 2055 x[14,7] + 2206 x[14,8] + 1970 x[14,9]
   + 503 x[14,10] + 3299 x[14,11] + 3051 x[14,12] + 1538 x[14,13]
   + 2805 x[14,15] + 3209 x[15,1] + 3272 x[15,2] + 3188 x[15,3]
   + 2341 x[15,4] + 1322 x[15,5] + 1038 x[15,6] + 4437 x[15,7]
   + 613 x[15,8] + 1089 x[15,9] + 3209 x[15,10] + 1047 x[15,11]
   + 1107 x[15,12] + 3411 x[15,13] + 2804 x[15,14] + 2217 x[1,2]
   + 1343 x[1,3] + 1290 x[1,4] + 3650 x[1,5] + 2853 x[1,6] + 1720 x[1,7]
   + 2607 x[1,8] + 2385 x[1,9] + 207 x[1,10] + 3650 x[1,11] + 3388 x[1,12]
   + 1413 x[1,13] + 412 x[1,14] + 3210 x[1,15] + 2220 x[2,1] + 899 x[2,3]
   + 2918 x[2,4] + 2825 x[2,5] + 2342 x[2,6] + 1842 x[2,7] + 2914 x[2,8]
   + 3142 x[2,9] + 2030 x[2,10] + 3018 x[2,11] + 2696 x[2,12] + 929 x[2,13]
   + 2229 x[2,14] + 3267 x[2,15] + 1338 x[3,1] + 903 x[3,2] + 2218 x[3,4]
   + 3100 x[3,5] + 2440 x[3,6] + 1311 x[3,7] + 2693 x[3,8] + 2758 x[3,9]
   + 1148 x[3,10] + 3221 x[3,11] + 2915 x[3,12] + 232 x[3,13]
   + 1413 x[3,14] + 3181 x[3,15] + 1282 x[4,1] + 2918 x[4,2] + 2219 x[4,3]
   + 3198 x[4,5] + 2407 x[4,6] + 2978 x[4,7] + 1756 x[4,8] + 1325 x[4,9]
   + 1414 x[4,10] + 3083 x[4,11] + 2916 x[4,12] + 2382 x[4,13]
   + 926 x[4,14] + 2347 x[4,15] + 3643 x[5,1] + 2822 x[5,2] + 3105 x[5,3]
   + 3199 x[5,4] + 814 x[5,6] + 4403 x[5,7] + 1619 x[5,8] + 2197 x[5,9]
   + 3575 x[5,10] + 321 x[5,11] + 283 x[5,12] + 3306 x[5,13] + 3312 x[5,14]
   + 1317 x[5,15] + 2851 x[6,1] + 2336 x[6,2] + 2439 x[6,3] + 2412 x[6,4]
   + 811 x[6,5] + 3742 x[6,7] + 1009 x[6,8] + 1557 x[6,9] + 2791 x[6,10]
   + 809 x[6,11] + 542 x[6,12] + 2655 x[6,13] + 2507 x[6,14] + 1038 x[6,15]
   + 1723 x[7,1] + 1840 x[7,2] + 1306 x[7,3] + 2974 x[7,4] + 4406 x[7,5]
   + 3733 x[7,6] + 3905 x[7,8] + 3867 x[7,9] + 1562 x[7,10] + 4523 x[7,11]
   + 4216 x[7,12] + 1102 x[7,13] + 2052 x[7,14] + 4433 x[7,15]
   + 2611 x[8,1] + 2912 x[8,2] + 2693 x[8,3] + 1756 x[8,4] + 1615 x[8,5]
   + 1013 x[8,6] + 3905 x[8,7] + 583 x[8,9] + 2619 x[8,10] + 1421 x[8,11]
   + 1341 x[8,12] + 2916 x[8,13] + 2210 x[8,14] + 614 x[8,15] + 2380 x[9,1]
   + 3145 x[9,2] + 2767 x[9,3] + 1323 x[9,4] + 2199 x[9,5] + 1558 x[9,6]
   + 3865 x[9,7] + 583 x[9,8] + 2435 x[9,10] + 2006 x[9,11] + 1924 x[9,12]
   + 2980 x[9,13] + 1965 x[9,14] + 1088 x[9,15] + 203 x[10,1]
   + 2031 x[10,2] + 1147 x[10,3] + 1414 x[10,4] + 3574 x[10,5]
   + 2789 x[10,6] + 1572 x[10,7] + 2621 x[10,8] + 2438 x[10,9]
   + 3598 x[10,11] + 3332 x[10,12] + 1209 x[10,13] + 509 x[10,14]
   + 3211 x[10,15] + 3641 x[11,1] + 3010 x[11,2] + 3219 x[11,3]
   + 3082 x[11,4] + 318 x[11,5] + 810 x[11,6] + 4524 x[11,7] + 1422 x[11,8]
   + 2001 x[11,9] + 3594 x[11,10] + 326 x[11,12] + 3426 x[11,13]
   + 3290 x[11,14] + 1053 x[11,15] + 3389 x[12,1] + 2702 x[12,2]
   + 2906 x[12,3] + 2908 x[12,4] + 289 x[12,5] + 541 x[12,6] + 4215 x[12,7]
   + 1348 x[12,8] + 1930 x[12,9] + 3328 x[12,10] + 322 x[12,11]
   + 3114 x[12,13] + 3046 x[12,14] + 1105 x[12,15] + 1405 x[13,1]
   + 924 x[13,2] + 229 x[13,3] + 2381 x[13,4] + 3301 x[13,5] + 2647 x[13,6]
   + 1101 x[13,7] + 2919 x[13,8] + 2976 x[13,9] + 1214 x[13,10]
   + 3432 x[13,11] + 3117 x[13,12] + 1538 x[13,14] + 3401 x[13,15]
   + 415 x[14,1] + 2221 x[14,2] + 1411 x[14,3] + 929 x[14,4] + 3313 x[14,5]
   + 2507 x[14,6] + 2055 x[14,7] + 2206 x[14,8] + 1970 x[14,9]
   + 503 x[14,10] + 3299 x[14,11] + 3051 x[14,12] + 1538 x[14,13]
   + 2805 x[14,15] + 3209 x[15,1] + 3272 x[15,2] + 3188 x[15,3]
   + 2341 x[15,4] + 1322 x[15,5] + 1038 x[15,6] + 4437 x[15,7]
   + 613 x[15,8] + 1089 x[15,9] + 3209 x[15,10] + 1047 x[15,11]
   + 1107 x[15,12] + 3411 x[15,13] + 2804 x[15,14]
Subject To
 FS[2]: x[2,1] + x[2,3] + x[2,4] + x[2,5] + x[2,6] + x[2,7] + x[2,8]
   + x[2,9] + x[2,10] + x[2,11] + x[2,12] + x[2,13] + x[2,14] + x[2,15]
   = 1
 FS[3]: x[3,1] + x[3,2] + x[3,4] + x[3,5] + x[3,6] + x[3,7] + x[3,8]
   + x[3,9] + x[3,10] + x[3,11] + x[3,12] + x[3,13] + x[3,14] + x[3,15]
   = 1
 FS[4]: x[4,1] + x[4,2] + x[4,3] + x[4,5] + x[4,6] + x[4,7] + x[4,8]
   + x[4,9] + x[4,10] + x[4,11] + x[4,12] + x[4,13] + x[4,14] + x[4,15]
   = 1
 FS[5]: x[5,1] + x[5,2] + x[5,3] + x[5,4] + x[5,6] + x[5,7] + x[5,8]
   + x[5,9] + x[5,10] + x[5,11] + x[5,12] + x[5,13] + x[5,14] + x[5,15]
   = 1
 FS[6]: x[6,1] + x[6,2] + x[6,3] + x[6,4] + x[6,5] + x[6,7] + x[6,8]
   + x[6,9] + x[6,10] + x[6,11] + x[6,12] + x[6,13] + x[6,14] + x[6,15]
   = 1
 FS[7]: x[7,1] + x[7,2] + x[7,3] + x[7,4] + x[7,5] + x[7,6] + x[7,8]
   + x[7,9] + x[7,10] + x[7,11] + x[7,12] + x[7,13] + x[7,14] + x[7,15]
   = 1
 FS[8]: x[8,1] + x[8,2] + x[8,3] + x[8,4] + x[8,5] + x[8,6] + x[8,7]
   + x[8,9] + x[8,10] + x[8,11] + x[8,12] + x[8,13] + x[8,14] + x[8,15]
   = 1
 FS[9]: x[9,1] + x[9,2] + x[9,3] + x[9,4] + x[9,5] + x[9,6] + x[9,7]
   + x[9,8] + x[9,10] + x[9,11] + x[9,12] + x[9,13] + x[9,14] + x[9,15]
   = 1
 FS[10]: x[10,1] + x[10,2] + x[10,3] + x[10,4] + x[10,5] + x[10,6]
   + x[10,7] + x[10,8] + x[10,9] + x[10,11] + x[10,12] + x[10,13]
   + x[10,14] + x[10,15] = 1
 FS[11]: x[11,1] + x[11,2] + x[11,3] + x[11,4] + x[11,5] + x[11,6]
   + x[11,7] + x[11,8] + x[11,9] + x[11,10] + x[11,12] + x[11,13]
   + x[11,14] + x[11,15] = 1
 FS[12]: x[12,1] + x[12,2] + x[12,3] + x[12,4] + x[12,5] + x[12,6]
   + x[12,7] + x[12,8] + x[12,9] + x[12,10] + x[12,11] + x[12,13]
   + x[12,14] + x[12,15] = 1
 FS[13]: x[13,1] + x[13,2] + x[13,3] + x[13,4] + x[13,5] + x[13,6]
   + x[13,7] + x[13,8] + x[13,9] + x[13,10] + x[13,11] + x[13,12]
   + x[13,14] + x[13,15] = 1
 FS[14]: x[14,1] + x[14,2] + x[14,3] + x[14,4] + x[14,5] + x[14,6]
   + x[14,7] + x[14,8] + x[14,9] + x[14,10] + x[14,11] + x[14,12]
   + x[14,13] + x[14,15] = 1
 FS[15]: x[15,1] + x[15,2] + x[15,3] + x[15,4] + x[15,5] + x[15,6]
   + x[15,7] + x[15,8] + x[15,9] + x[15,10] + x[15,11] + x[15,12]
   + x[15,13] + x[15,14] = 1
 RS[2]: x[1,2] + x[3,2] + x[4,2] + x[5,2] + x[6,2] + x[7,2] + x[8,2]
   + x[9,2] + x[10,2] + x[11,2] + x[12,2] + x[13,2] + x[14,2] + x[15,2]
   = 1
 RS[3]: x[1,3] + x[2,3] + x[4,3] + x[5,3] + x[6,3] + x[7,3] + x[8,3]
   + x[9,3] + x[10,3] + x[11,3] + x[12,3] + x[13,3] + x[14,3] + x[15,3]
   = 1
 RS[4]: x[1,4] + x[2,4] + x[3,4] + x[5,4] + x[6,4] + x[7,4] + x[8,4]
   + x[9,4] + x[10,4] + x[11,4] + x[12,4] + x[13,4] + x[14,4] + x[15,4]
   = 1
 RS[5]: x[1,5] + x[2,5] + x[3,5] + x[4,5] + x[6,5] + x[7,5] + x[8,5]
   + x[9,5] + x[10,5] + x[11,5] + x[12,5] + x[13,5] + x[14,5] + x[15,5]
   = 1
 RS[6]: x[1,6] + x[2,6] + x[3,6] + x[4,6] + x[5,6] + x[7,6] + x[8,6]
   + x[9,6] + x[10,6] + x[11,6] + x[12,6] + x[13,6] + x[14,6] + x[15,6]
   = 1
 RS[7]: x[1,7] + x[2,7] + x[3,7] + x[4,7] + x[5,7] + x[6,7] + x[8,7]
   + x[9,7] + x[10,7] + x[11,7] + x[12,7] + x[13,7] + x[14,7] + x[15,7]
   = 1
 RS[8]: x[1,8] + x[2,8] + x[3,8] + x[4,8] + x[5,8] + x[6,8] + x[7,8]
   + x[9,8] + x[10,8] + x[11,8] + x[12,8] + x[13,8] + x[14,8] + x[15,8]
   = 1
 RS[9]: x[1,9] + x[2,9] + x[3,9] + x[4,9] + x[5,9] + x[6,9] + x[7,9]
   + x[8,9] + x[10,9] + x[11,9] + x[12,9] + x[13,9] + x[14,9] + x[15,9]
   = 1
 RS[10]: x[1,10] + x[2,10] + x[3,10] + x[4,10] + x[5,10] + x[6,10]
   + x[7,10] + x[8,10] + x[9,10] + x[11,10] + x[12,10] + x[13,10]
   + x[14,10] + x[15,10] = 1
 RS[11]: x[1,11] + x[2,11] + x[3,11] + x[4,11] + x[5,11] + x[6,11]
   + x[7,11] + x[8,11] + x[9,11] + x[10,11] + x[12,11] + x[13,11]
   + x[14,11] + x[15,11] = 1
 RS[12]: x[1,12] + x[2,12] + x[3,12] + x[4,12] + x[5,12] + x[6,12]
   + x[7,12] + x[8,12] + x[9,12] + x[10,12] + x[11,12] + x[13,12]
   + x[14,12] + x[15,12] = 1
 RS[13]: x[1,13] + x[2,13] + x[3,13] + x[4,13] + x[5,13] + x[6,13]
   + x[7,13] + x[8,13] + x[9,13] + x[10,13] + x[11,13] + x[12,13]
   + x[14,13] + x[15,13] = 1
 RS[14]: x[1,14] + x[2,14] + x[3,14] + x[4,14] + x[5,14] + x[6,14]
   + x[7,14] + x[8,14] + x[9,14] + x[10,14] + x[11,14] + x[12,14]
   + x[13,14] + x[15,14] = 1
 RS[15]: x[1,15] + x[2,15] + x[3,15] + x[4,15] + x[5,15] + x[6,15]
   + x[7,15] + x[8,15] + x[9,15] + x[10,15] + x[11,15] + x[12,15]
   + x[13,15] + x[14,15] = 1
 FLOW[2]: f[1,2] - f[2,1] - f[2,3] - f[2,4] - f[2,5] - f[2,6] - f[2,7]
   - f[2,8] - f[2,9] - f[2,10] - f[2,11] - f[2,12] - f[2,13] - f[2,14]
   - f[2,15] + f[3,2] + f[4,2] + f[5,2] + f[6,2] + f[7,2] + f[8,2] + f[9,2]
   + f[10,2] + f[11,2] + f[12,2] + f[13,2] + f[14,2] + f[15,2] = 1378
 FLOW[3]: f[1,3] + f[2,3] - f[3,1] - f[3,2] - f[3,4] - f[3,5] - f[3,6]
   - f[3,7] - f[3,8] - f[3,9] - f[3,10] - f[3,11] - f[3,12] - f[3,13]
   - f[3,14] - f[3,15] + f[4,3] + f[5,3] + f[6,3] + f[7,3] + f[8,3]
   + f[9,3] + f[10,3] + f[11,3] + f[12,3] + f[13,3] + f[14,3] + f[15,3]
   = 458
 FLOW[4]: f[1,4] + f[2,4] + f[3,4] - f[4,1] - f[4,2] - f[4,3] - f[4,5]
   - f[4,6] - f[4,7] - f[4,8] - f[4,9] - f[4,10] - f[4,11] - f[4,12]
   - f[4,13] - f[4,14] - f[4,15] + f[5,4] + f[6,4] + f[7,4] + f[8,4]
   + f[9,4] + f[10,4] + f[11,4] + f[12,4] + f[13,4] + f[14,4] + f[15,4]
   = 1747
 FLOW[5]: f[1,5] + f[2,5] + f[3,5] + f[4,5] - f[5,1] - f[5,2] - f[5,3]
   - f[5,4] - f[5,6] - f[5,7] - f[5,8] - f[5,9] - f[5,10] - f[5,11]
   - f[5,12] - f[5,13] - f[5,14] - f[5,15] + f[6,5] + f[7,5] + f[8,5]
   + f[9,5] + f[10,5] + f[11,5] + f[12,5] + f[13,5] + f[14,5] + f[15,5]
   = 1483
 FLOW[6]: f[1,6] + f[2,6] + f[3,6] + f[4,6] + f[5,6] - f[6,1] - f[6,2]
   - f[6,3] - f[6,4] - f[6,5] - f[6,7] - f[6,8] - f[6,9] - f[6,10]
   - f[6,11] - f[6,12] - f[6,13] - f[6,14] - f[6,15] + f[7,6] + f[8,6]
   + f[9,6] + f[10,6] + f[11,6] + f[12,6] + f[13,6] + f[14,6] + f[15,6]
   = 180
 FLOW[7]: f[1,7] + f[2,7] + f[3,7] + f[4,7] + f[5,7] + f[6,7] - f[7,1]
   - f[7,2] - f[7,3] - f[7,4] - f[7,5] - f[7,6] - f[7,8] - f[7,9] - f[7,10]
   - f[7,11] - f[7,12] - f[7,13] - f[7,14] - f[7,15] + f[8,7] + f[9,7]
   + f[10,7] + f[11,7] + f[12,7] + f[13,7] + f[14,7] + f[15,7] = 1518
 FLOW[8]: f[1,8] + f[2,8] + f[3,8] + f[4,8] + f[5,8] + f[6,8] + f[7,8]
   - f[8,1] - f[8,2] - f[8,3] - f[8,4] - f[8,5] - f[8,6] - f[8,7] - f[8,9]
   - f[8,10] - f[8,11] - f[8,12] - f[8,13] - f[8,14] - f[8,15] + f[9,8]
   + f[10,8] + f[11,8] + f[12,8] + f[13,8] + f[14,8] + f[15,8] = 340
 FLOW[9]: f[1,9] + f[2,9] + f[3,9] + f[4,9] + f[5,9] + f[6,9] + f[7,9]
   + f[8,9] - f[9,1] - f[9,2] - f[9,3] - f[9,4] - f[9,5] - f[9,6] - f[9,7]
   - f[9,8] - f[9,10] - f[9,11] - f[9,12] - f[9,13] - f[9,14] - f[9,15]
   + f[10,9] + f[11,9] + f[12,9] + f[13,9] + f[14,9] + f[15,9] = 451
 FLOW[10]: f[1,10] + f[2,10] + f[3,10] + f[4,10] + f[5,10] + f[6,10]
   + f[7,10] + f[8,10] + f[9,10] - f[10,1] - f[10,2] - f[10,3] - f[10,4]
   - f[10,5] - f[10,6] - f[10,7] - f[10,8] - f[10,9] - f[10,11] - f[10,12]
   - f[10,13] - f[10,14] - f[10,15] + f[11,10] + f[12,10] + f[13,10]
   + f[14,10] + f[15,10] = 1249
 FLOW[11]: f[1,11] + f[2,11] + f[3,11] + f[4,11] + f[5,11] + f[6,11]
   + f[7,11] + f[8,11] + f[9,11] + f[10,11] - f[11,1] - f[11,2] - f[11,3]
   - f[11,4] - f[11,5] - f[11,6] - f[11,7] - f[11,8] - f[11,9] - f[11,10]
   - f[11,12] - f[11,13] - f[11,14] - f[11,15] + f[12,11] + f[13,11]
   + f[14,11] + f[15,11] = 129
 FLOW[12]: f[1,12] + f[2,12] + f[3,12] + f[4,12] + f[5,12] + f[6,12]
   + f[7,12] + f[8,12] + f[9,12] + f[10,12] + f[11,12] - f[12,1] - f[12,2]
   - f[12,3] - f[12,4] - f[12,5] - f[12,6] - f[12,7] - f[12,8] - f[12,9]
   - f[12,10] - f[12,11] - f[12,13] - f[12,14] - f[12,15] + f[13,12]
   + f[14,12] + f[15,12] = 939
 FLOW[13]: f[1,13] + f[2,13] + f[3,13] + f[4,13] + f[5,13] + f[6,13]
   + f[7,13] + f[8,13] + f[9,13] + f[10,13] + f[11,13] + f[12,13] - f[13,1]
   - f[13,2] - f[13,3] - f[13,4] - f[13,5] - f[13,6] - f[13,7] - f[13,8]
   - f[13,9] - f[13,10] - f[13,11] - f[13,12] - f[13,14] - f[13,15]
   + f[14,13] + f[15,13] = 768
 FLOW[14]: f[1,14] + f[2,14] + f[3,14] + f[4,14] + f[5,14] + f[6,14]
   + f[7,14] + f[8,14] + f[9,14] + f[10,14] + f[11,14] + f[12,14]
   + f[13,14] - f[14,1] - f[14,2] - f[14,3] - f[14,4] - f[14,5] - f[14,6]
   - f[14,7] - f[14,8] - f[14,9] - f[14,10] - f[14,11] - f[14,12]
   - f[14,13] - f[14,15] + f[15,14] = 1037
 FLOW[15]: f[1,15] + f[2,15] + f[3,15] + f[4,15] + f[5,15] + f[6,15]
   + f[7,15] + f[8,15] + f[9,15] + f[10,15] + f[11,15] + f[12,15]
   + f[13,15] + f[14,15] - f[15,1] - f[15,2] - f[15,3] - f[15,4] - f[15,5]
   - f[15,6] - f[15,7] - f[15,8] - f[15,9] - f[15,10] - f[15,11] - f[15,12]
   - f[15,13] - f[15,14] = 1529
 VUB[1,2]: - 3000 x[1,2] + f[1,2] <= 0
 VUB[1,3]: - 3000 x[1,3] + f[1,3] <= 0
 VUB[1,4]: - 3000 x[1,4] + f[1,4] <= 0
 VUB[1,5]: - 3000 x[1,5] + f[1,5] <= 0
 VUB[1,6]: - 3000 x[1,6] + f[1,6] <= 0
 VUB[1,7]: - 3000 x[1,7] + f[1,7] <= 0
 VUB[1,8]: - 3000 x[1,8] + f[1,8] <= 0
 VUB[1,9]: - 3000 x[1,9] + f[1,9] <= 0
 VUB[1,10]: - 3000 x[1,10] + f[1,10] <= 0
 VUB[1,11]: - 3000 x[1,11] + f[1,11] <= 0
 VUB[1,12]: - 3000 x[1,12] + f[1,12] <= 0
 VUB[1,13]: - 3000 x[1,13] + f[1,13] <= 0
 VUB[1,14]: - 3000 x[1,14] + f[1,14] <= 0
 VUB[1,15]: - 3000 x[1,15] + f[1,15] <= 0
 VUB[2,1]: - 1622 x[2,1] + f[2,1] <= 0
 VUB[2,3]: - 1622 x[2,3] + f[2,3] <= 0
 VUB[2,4]: - 1622 x[2,4] + f[2,4] <= 0
 VUB[2,5]: - 1622 x[2,5] + f[2,5] <= 0
 VUB[2,6]: - 1622 x[2,6] + f[2,6] <= 0
 VUB[2,7]: - 1622 x[2,7] + f[2,7] <= 0
 VUB[2,8]: - 1622 x[2,8] + f[2,8] <= 0
 VUB[2,9]: - 1622 x[2,9] + f[2,9] <= 0
 VUB[2,10]: - 1622 x[2,10] + f[2,10] <= 0
 VUB[2,11]: - 1622 x[2,11] + f[2,11] <= 0
 VUB[2,12]: - 1622 x[2,12] + f[2,12] <= 0
 VUB[2,13]: - 1622 x[2,13] + f[2,13] <= 0
 VUB[2,14]: - 1622 x[2,14] + f[2,14] <= 0
 VUB[2,15]: - 1622 x[2,15] + f[2,15] <= 0
 VUB[3,1]: - 2542 x[3,1] + f[3,1] <= 0
 VUB[3,2]: - 2542 x[3,2] + f[3,2] <= 0
 VUB[3,4]: - 2542 x[3,4] + f[3,4] <= 0
 VUB[3,5]: - 2542 x[3,5] + f[3,5] <= 0
 VUB[3,6]: - 2542 x[3,6] + f[3,6] <= 0
 VUB[3,7]: - 2542 x[3,7] + f[3,7] <= 0
 VUB[3,8]: - 2542 x[3,8] + f[3,8] <= 0
 VUB[3,9]: - 2542 x[3,9] + f[3,9] <= 0
 VUB[3,10]: - 2542 x[3,10] + f[3,10] <= 0
 VUB[3,11]: - 2542 x[3,11] + f[3,11] <= 0
 VUB[3,12]: - 2542 x[3,12] + f[3,12] <= 0
 VUB[3,13]: - 2542 x[3,13] + f[3,13] <= 0
 VUB[3,14]: - 2542 x[3,14] + f[3,14] <= 0
 VUB[3,15]: - 2542 x[3,15] + f[3,15] <= 0
 VUB[4,1]: - 1253 x[4,1] + f[4,1] <= 0
 VUB[4,2]: - 1253 x[4,2] + f[4,2] <= 0
 VUB[4,3]: - 1253 x[4,3] + f[4,3] <= 0
 VUB[4,5]: - 1253 x[4,5] + f[4,5] <= 0
 VUB[4,6]: - 1253 x[4,6] + f[4,6] <= 0
 VUB[4,7]: - 1253 x[4,7] + f[4,7] <= 0
 VUB[4,8]: - 1253 x[4,8] + f[4,8] <= 0
 VUB[4,9]: - 1253 x[4,9] + f[4,9] <= 0
 VUB[4,10]: - 1253 x[4,10] + f[4,10] <= 0
 VUB[4,11]: - 1253 x[4,11] + f[4,11] <= 0
 VUB[4,12]: - 1253 x[4,12] + f[4,12] <= 0
 VUB[4,13]: - 1253 x[4,13] + f[4,13] <= 0
 VUB[4,14]: - 1253 x[4,14] + f[4,14] <= 0
 VUB[4,15]: - 1253 x[4,15] + f[4,15] <= 0
 VUB[5,1]: - 1517 x[5,1] + f[5,1] <= 0
 VUB[5,2]: - 1517 x[5,2] + f[5,2] <= 0
 VUB[5,3]: - 1517 x[5,3] + f[5,3] <= 0
 VUB[5,4]: - 1517 x[5,4] + f[5,4] <= 0
 VUB[5,6]: - 1517 x[5,6] + f[5,6] <= 0
 VUB[5,7]: - 1517 x[5,7] + f[5,7] <= 0
 VUB[5,8]: - 1517 x[5,8] + f[5,8] <= 0
 VUB[5,9]: - 1517 x[5,9] + f[5,9] <= 0
 VUB[5,10]: - 1517 x[5,10] + f[5,10] <= 0
 VUB[5,11]: - 1517 x[5,11] + f[5,11] <= 0
 VUB[5,12]: - 1517 x[5,12] + f[5,12] <= 0
 VUB[5,13]: - 1517 x[5,13] + f[5,13] <= 0
 VUB[5,14]: - 1517 x[5,14] + f[5,14] <= 0
 VUB[5,15]: - 1517 x[5,15] + f[5,15] <= 0
 VUB[6,1]: - 2820 x[6,1] + f[6,1] <= 0
 VUB[6,2]: - 2820 x[6,2] + f[6,2] <= 0
 VUB[6,3]: - 2820 x[6,3] + f[6,3] <= 0
 VUB[6,4]: - 2820 x[6,4] + f[6,4] <= 0
 VUB[6,5]: - 2820 x[6,5] + f[6,5] <= 0
 VUB[6,7]: - 2820 x[6,7] + f[6,7] <= 0
 VUB[6,8]: - 2820 x[6,8] + f[6,8] <= 0
 VUB[6,9]: - 2820 x[6,9] + f[6,9] <= 0
 VUB[6,10]: - 2820 x[6,10] + f[6,10] <= 0
 VUB[6,11]: - 2820 x[6,11] + f[6,11] <= 0
 VUB[6,12]: - 2820 x[6,12] + f[6,12] <= 0
 VUB[6,13]: - 2820 x[6,13] + f[6,13] <= 0
 VUB[6,14]: - 2820 x[6,14] + f[6,14] <= 0
 VUB[6,15]: - 2820 x[6,15] + f[6,15] <= 0
 VUB[7,1]: - 1482 x[7,1] + f[7,1] <= 0
 VUB[7,2]: - 1482 x[7,2] + f[7,2] <= 0
 VUB[7,3]: - 1482 x[7,3] + f[7,3] <= 0
 VUB[7,4]: - 1482 x[7,4] + f[7,4] <= 0
 VUB[7,5]: - 1482 x[7,5] + f[7,5] <= 0
 VUB[7,6]: - 1482 x[7,6] + f[7,6] <= 0
 VUB[7,8]: - 1482 x[7,8] + f[7,8] <= 0
 VUB[7,9]: - 1482 x[7,9] + f[7,9] <= 0
 VUB[7,10]: - 1482 x[7,10] + f[7,10] <= 0
 VUB[7,11]: - 1482 x[7,11] + f[7,11] <= 0
 VUB[7,12]: - 1482 x[7,12] + f[7,12] <= 0
 VUB[7,13]: - 1482 x[7,13] + f[7,13] <= 0
 VUB[7,14]: - 1482 x[7,14] + f[7,14] <= 0
 VUB[7,15]: - 1482 x[7,15] + f[7,15] <= 0
 VUB[8,1]: - 2660 x[8,1] + f[8,1] <= 0
 VUB[8,2]: - 2660 x[8,2] + f[8,2] <= 0
 VUB[8,3]: - 2660 x[8,3] + f[8,3] <= 0
 VUB[8,4]: - 2660 x[8,4] + f[8,4] <= 0
 VUB[8,5]: - 2660 x[8,5] + f[8,5] <= 0
 VUB[8,6]: - 2660 x[8,6] + f[8,6] <= 0
 VUB[8,7]: - 2660 x[8,7] + f[8,7] <= 0
 VUB[8,9]: - 2660 x[8,9] + f[8,9] <= 0
 VUB[8,10]: - 2660 x[8,10] + f[8,10] <= 0
 VUB[8,11]: - 2660 x[8,11] + f[8,11] <= 0
 VUB[8,12]: - 2660 x[8,12] + f[8,12] <= 0
 VUB[8,13]: - 2660 x[8,13] + f[8,13] <= 0
 VUB[8,14]: - 2660 x[8,14] + f[8,14] <= 0
 VUB[8,15]: - 2660 x[8,15] + f[8,15] <= 0
 VUB[9,1]: - 2549 x[9,1] + f[9,1] <= 0
 VUB[9,2]: - 2549 x[9,2] + f[9,2] <= 0
 VUB[9,3]: - 2549 x[9,3] + f[9,3] <= 0
 VUB[9,4]: - 2549 x[9,4] + f[9,4] <= 0
 VUB[9,5]: - 2549 x[9,5] + f[9,5] <= 0
 VUB[9,6]: - 2549 x[9,6] + f[9,6] <= 0
 VUB[9,7]: - 2549 x[9,7] + f[9,7] <= 0
 VUB[9,8]: - 2549 x[9,8] + f[9,8] <= 0
 VUB[9,10]: - 2549 x[9,10] + f[9,10] <= 0
 VUB[9,11]: - 2549 x[9,11] + f[9,11] <= 0
 VUB[9,12]: - 2549 x[9,12] + f[9,12] <= 0
 VUB[9,13]: - 2549 x[9,13] + f[9,13] <= 0
 VUB[9,14]: - 2549 x[9,14] + f[9,14] <= 0
 VUB[9,15]: - 2549 x[9,15] + f[9,15] <= 0
 VUB[10,1]: - 1751 x[10,1] + f[10,1] <= 0
 VUB[10,2]: - 1751 x[10,2] + f[10,2] <= 0
 VUB[10,3]: - 1751 x[10,3] + f[10,3] <= 0
 VUB[10,4]: - 1751 x[10,4] + f[10,4] <= 0
 VUB[10,5]: - 1751 x[10,5] + f[10,5] <= 0
 VUB[10,6]: - 1751 x[10,6] + f[10,6] <= 0
 VUB[10,7]: - 1751 x[10,7] + f[10,7] <= 0
 VUB[10,8]: - 1751 x[10,8] + f[10,8] <= 0
 VUB[10,9]: - 1751 x[10,9] + f[10,9] <= 0
 VUB[10,11]: - 1751 x[10,11] + f[10,11] <= 0
 VUB[10,12]: - 1751 x[10,12] + f[10,12] <= 0
 VUB[10,13]: - 1751 x[10,13] + f[10,13] <= 0
 VUB[10,14]: - 1751 x[10,14] + f[10,14] <= 0
 VUB[10,15]: - 1751 x[10,15] + f[10,15] <= 0
 VUB[11,1]: - 2871 x[11,1] + f[11,1] <= 0
 VUB[11,2]: - 2871 x[11,2] + f[11,2] <= 0
 VUB[11,3]: - 2871 x[11,3] + f[11,3] <= 0
 VUB[11,4]: - 2871 x[11,4] + f[11,4] <= 0
 VUB[11,5]: - 2871 x[11,5] + f[11,5] <= 0
 VUB[11,6]: - 2871 x[11,6] + f[11,6] <= 0
 VUB[11,7]: - 2871 x[11,7] + f[11,7] <= 0
 VUB[11,8]: - 2871 x[11,8] + f[11,8] <= 0
 VUB[11,9]: - 2871 x[11,9] + f[11,9] <= 0
 VUB[11,10]: - 2871 x[11,10] + f[11,10] <= 0
 VUB[11,12]: - 2871 x[11,12] + f[11,12] <= 0
 VUB[11,13]: - 2871 x[11,13] + f[11,13] <= 0
 VUB[11,14]: - 2871 x[11,14] + f[11,14] <= 0
 VUB[11,15]: - 2871 x[11,15] + f[11,15] <= 0
 VUB[12,1]: - 2061 x[12,1] + f[12,1] <= 0
 VUB[12,2]: - 2061 x[12,2] + f[12,2] <= 0
 VUB[12,3]: - 2061 x[12,3] + f[12,3] <= 0
 VUB[12,4]: - 2061 x[12,4] + f[12,4] <= 0
 VUB[12,5]: - 2061 x[12,5] + f[12,5] <= 0
 VUB[12,6]: - 2061 x[12,6] + f[12,6] <= 0
 VUB[12,7]: - 2061 x[12,7] + f[12,7] <= 0
 VUB[12,8]: - 2061 x[12,8] + f[12,8] <= 0
 VUB[12,9]: - 2061 x[12,9] + f[12,9] <= 0
 VUB[12,10]: - 2061 x[12,10] + f[12,10] <= 0
 VUB[12,11]: - 2061 x[12,11] + f[12,11] <= 0
 VUB[12,13]: - 2061 x[12,13] + f[12,13] <= 0
 VUB[12,14]: - 2061 x[12,14] + f[12,14] <= 0
 VUB[12,15]: - 2061 x[12,15] + f[12,15] <= 0
 VUB[13,1]: - 2232 x[13,1] + f[13,1] <= 0
 VUB[13,2]: - 2232 x[13,2] + f[13,2] <= 0
 VUB[13,3]: - 2232 x[13,3] + f[13,3] <= 0
 VUB[13,4]: - 2232 x[13,4] + f[13,4] <= 0
 VUB[13,5]: - 2232 x[13,5] + f[13,5] <= 0
 VUB[13,6]: - 2232 x[13,6] + f[13,6] <= 0
 VUB[13,7]: - 2232 x[13,7] + f[13,7] <= 0
 VUB[13,8]: - 2232 x[13,8] + f[13,8] <= 0
 VUB[13,9]: - 2232 x[13,9] + f[13,9] <= 0
 VUB[13,10]: - 2232 x[13,10] + f[13,10] <= 0
 VUB[13,11]: - 2232 x[13,11] + f[13,11] <= 0
 VUB[13,12]: - 2232 x[13,12] + f[13,12] <= 0
 VUB[13,14]: - 2232 x[13,14] + f[13,14] <= 0
 VUB[13,15]: - 2232 x[13,15] + f[13,15] <= 0
 VUB[14,1]: - 1963 x[14,1] + f[14,1] <= 0
 VUB[14,2]: - 1963 x[14,2] + f[14,2] <= 0
 VUB[14,3]: - 1963 x[14,3] + f[14,3] <= 0
 VUB[14,4]: - 1963 x[14,4] + f[14,4] <= 0
 VUB[14,5]: - 1963 x[14,5] + f[14,5] <= 0
 VUB[14,6]: - 1963 x[14,6] + f[14,6] <= 0
 VUB[14,7]: - 1963 x[14,7] + f[14,7] <= 0
 VUB[14,8]: - 1963 x[14,8] + f[14,8] <= 0
 VUB[14,9]: - 1963 x[14,9] + f[14,9] <= 0
 VUB[14,10]: - 1963 x[14,10] + f[14,10] <= 0
 VUB[14,11]: - 1963 x[14,11] + f[14,11] <= 0
 VUB[14,12]: - 1963 x[14,12] + f[14,12] <= 0
 VUB[14,13]: - 1963 x[14,13] + f[14,13] <= 0
 VUB[14,15]: - 1963 x[14,15] + f[14,15] <= 0
 VUB[15,1]: - 1471 x[15,1] + f[15,1] <= 0
 VUB[15,2]: - 1471 x[15,2] + f[15,2] <= 0
 VUB[15,3]: - 1471 x[15,3] + f[15,3] <= 0
 VUB[15,4]: - 1471 x[15,4] + f[15,4] <= 0
 VUB[15,5]: - 1471 x[15,5] + f[15,5] <= 0
 VUB[15,6]: - 1471 x[15,6] + f[15,6] <= 0
 VUB[15,7]: - 1471 x[15,7] + f[15,7] <= 0
 VUB[15,8]: - 1471 x[15,8] + f[15,8] <= 0
 VUB[15,9]: - 1471 x[15,9] + f[15,9] <= 0
 VUB[15,10]: - 1471 x[15,10] + f[15,10] <= 0
 VUB[15,11]: - 1471 x[15,11] + f[15,11] <= 0
 VUB[15,12]: - 1471 x[15,12] + f[15,12] <= 0
 VUB[15,13]: - 1471 x[15,13] + f[15,13] <= 0
 VUB[15,14]: - 1471 x[15,14] + f[15,14] <= 0
 VLB[1,2]: - 1378 x[1,2] + f[1,2] >= 0
 VLB[1,3]: - 458 x[1,3] + f[1,3] >= 0
 VLB[1,4]: - 1747 x[1,4] + f[1,4] >= 0
 VLB[1,5]: - 1483 x[1,5] + f[1,5] >= 0
 VLB[1,6]: - 180 x[1,6] + f[1,6] >= 0
 VLB[1,7]: - 1518 x[1,7] + f[1,7] >= 0
 VLB[1,8]: - 340 x[1,8] + f[1,8] >= 0
 VLB[1,9]: - 451 x[1,9] + f[1,9] >= 0
 VLB[1,10]: - 1249 x[1,10] + f[1,10] >= 0
 VLB[1,11]: - 129 x[1,11] + f[1,11] >= 0
 VLB[1,12]: - 939 x[1,12] + f[1,12] >= 0
 VLB[1,13]: - 768 x[1,13] + f[1,13] >= 0
 VLB[1,14]: - 1037 x[1,14] + f[1,14] >= 0
 VLB[1,15]: - 1529 x[1,15] + f[1,15] >= 0
 VLB[2,1]: f[2,1] >= 0
 VLB[2,3]: - 458 x[2,3] + f[2,3] >= 0
 VLB[2,4]: - 1747 x[2,4] + f[2,4] >= 0
 VLB[2,5]: - 1483 x[2,5] + f[2,5] >= 0
 VLB[2,6]: - 180 x[2,6] + f[2,6] >= 0
 VLB[2,7]: - 1518 x[2,7] + f[2,7] >= 0
 VLB[2,8]: - 340 x[2,8] + f[2,8] >= 0
 VLB[2,9]: - 451 x[2,9] + f[2,9] >= 0
 VLB[2,10]: - 1249 x[2,10] + f[2,10] >= 0
 VLB[2,11]: - 129 x[2,11] + f[2,11] >= 0
 VLB[2,12]: - 939 x[2,12] + f[2,12] >= 0
 VLB[2,13]: - 768 x[2,13] + f[2,13] >= 0
 VLB[2,14]: - 1037 x[2,14] + f[2,14] >= 0
 VLB[2,15]: - 1529 x[2,15] + f[2,15] >= 0
 VLB[3,1]: f[3,1] >= 0
 VLB[3,2]: - 1378 x[3,2] + f[3,2] >= 0
 VLB[3,4]: - 1747 x[3,4] + f[3,4] >= 0
 VLB[3,5]: - 1483 x[3,5] + f[3,5] >= 0
 VLB[3,6]: - 180 x[3,6] + f[3,6] >= 0
 VLB[3,7]: - 1518 x[3,7] + f[3,7] >= 0
 VLB[3,8]: - 340 x[3,8] + f[3,8] >= 0
 VLB[3,9]: - 451 x[3,9] + f[3,9] >= 0
 VLB[3,10]: - 1249 x[3,10] + f[3,10] >= 0
 VLB[3,11]: - 129 x[3,11] + f[3,11] >= 0
 VLB[3,12]: - 939 x[3,12] + f[3,12] >= 0
 VLB[3,13]: - 768 x[3,13] + f[3,13] >= 0
 VLB[3,14]: - 1037 x[3,14] + f[3,14] >= 0
 VLB[3,15]: - 1529 x[3,15] + f[3,15] >= 0
 VLB[4,1]: f[4,1] >= 0
 VLB[4,2]: - 1378 x[4,2] + f[4,2] >= 0
 VLB[4,3]: - 458 x[4,3] + f[4,3] >= 0
 VLB[4,5]: - 1483 x[4,5] + f[4,5] >= 0
 VLB[4,6]: - 180 x[4,6] + f[4,6] >= 0
 VLB[4,7]: - 1518 x[4,7] + f[4,7] >= 0
 VLB[4,8]: - 340 x[4,8] + f[4,8] >= 0
 VLB[4,9]: - 451 x[4,9] + f[4,9] >= 0
 VLB[4,10]: - 1249 x[4,10] + f[4,10] >= 0
 VLB[4,11]: - 129 x[4,11] + f[4,11] >= 0
 VLB[4,12]: - 939 x[4,12] + f[4,12] >= 0
 VLB[4,13]: - 768 x[4,13] + f[4,13] >= 0
 VLB[4,14]: - 1037 x[4,14] + f[4,14] >= 0
 VLB[4,15]: - 1529 x[4,15] + f[4,15] >= 0
 VLB[5,1]: f[5,1] >= 0
 VLB[5,2]: - 1378 x[5,2] + f[5,2] >= 0
 VLB[5,3]: - 458 x[5,3] + f[5,3] >= 0
 VLB[5,4]: - 1747 x[5,4] + f[5,4] >= 0
 VLB[5,6]: - 180 x[5,6] + f[5,6] >= 0
 VLB[5,7]: - 1518 x[5,7] + f[5,7] >= 0
 VLB[5,8]: - 340 x[5,8] + f[5,8] >= 0
 VLB[5,9]: - 451 x[5,9] + f[5,9] >= 0
 VLB[5,10]: - 1249 x[5,10] + f[5,10] >= 0
 VLB[5,11]: - 129 x[5,11] + f[5,11] >= 0
 VLB[5,12]: - 939 x[5,12] + f[5,12] >= 0
 VLB[5,13]: - 768 x[5,13] + f[5,13] >= 0
 VLB[5,14]: - 1037 x[5,14] + f[5,14] >= 0
 VLB[5,15]: - 1529 x[5,15] + f[5,15] >= 0
 VLB[6,1]: f[6,1] >= 0
 VLB[6,2]: - 1378 x[6,2] + f[6,2] >= 0
 VLB[6,3]: - 458 x[6,3] + f[6,3] >= 0
 VLB[6,4]: - 1747 x[6,4] + f[6,4] >= 0
 VLB[6,5]: - 1483 x[6,5] + f[6,5] >= 0
 VLB[6,7]: - 1518 x[6,7] + f[6,7] >= 0
 VLB[6,8]: - 340 x[6,8] + f[6,8] >= 0
 VLB[6,9]: - 451 x[6,9] + f[6,9] >= 0
 VLB[6,10]: - 1249 x[6,10] + f[6,10] >= 0
 VLB[6,11]: - 129 x[6,11] + f[6,11] >= 0
 VLB[6,12]: - 939 x[6,12] + f[6,12] >= 0
 VLB[6,13]: - 768 x[6,13] + f[6,13] >= 0
 VLB[6,14]: - 1037 x[6,14] + f[6,14] >= 0
 VLB[6,15]: - 1529 x[6,15] + f[6,15] >= 0
 VLB[7,1]: f[7,1] >= 0
 VLB[7,2]: - 1378 x[7,2] + f[7,2] >= 0
 VLB[7,3]: - 458 x[7,3] + f[7,3] >= 0
 VLB[7,4]: - 1747 x[7,4] + f[7,4] >= 0
 VLB[7,5]: - 1483 x[7,5] + f[7,5] >= 0
 VLB[7,6]: - 180 x[7,6] + f[7,6] >= 0
 VLB[7,8]: - 340 x[7,8] + f[7,8] >= 0
 VLB[7,9]: - 451 x[7,9] + f[7,9] >= 0
 VLB[7,10]: - 1249 x[7,10] + f[7,10] >= 0
 VLB[7,11]: - 129 x[7,11] + f[7,11] >= 0
 VLB[7,12]: - 939 x[7,12] + f[7,12] >= 0
 VLB[7,13]: - 768 x[7,13] + f[7,13] >= 0
 VLB[7,14]: - 1037 x[7,14] + f[7,14] >= 0
 VLB[7,15]: - 1529 x[7,15] + f[7,15] >= 0
 VLB[8,1]: f[8,1] >= 0
 VLB[8,2]: - 1378 x[8,2] + f[8,2] >= 0
 VLB[8,3]: - 458 x[8,3] + f[8,3] >= 0
 VLB[8,4]: - 1747 x[8,4] + f[8,4] >= 0
 VLB[8,5]: - 1483 x[8,5] + f[8,5] >= 0
 VLB[8,6]: - 180 x[8,6] + f[8,6] >= 0
 VLB[8,7]: - 1518 x[8,7] + f[8,7] >= 0
 VLB[8,9]: - 451 x[8,9] + f[8,9] >= 0
 VLB[8,10]: - 1249 x[8,10] + f[8,10] >= 0
 VLB[8,11]: - 129 x[8,11] + f[8,11] >= 0
 VLB[8,12]: - 939 x[8,12] + f[8,12] >= 0
 VLB[8,13]: - 768 x[8,13] + f[8,13] >= 0
 VLB[8,14]: - 1037 x[8,14] + f[8,14] >= 0
 VLB[8,15]: - 1529 x[8,15] + f[8,15] >= 0
 VLB[9,1]: f[9,1] >= 0
 VLB[9,2]: - 1378 x[9,2] + f[9,2] >= 0
 VLB[9,3]: - 458 x[9,3] + f[9,3] >= 0
 VLB[9,4]: - 1747 x[9,4] + f[9,4] >= 0
 VLB[9,5]: - 1483 x[9,5] + f[9,5] >= 0
 VLB[9,6]: - 180 x[9,6] + f[9,6] >= 0
 VLB[9,7]: - 1518 x[9,7] + f[9,7] >= 0
 VLB[9,8]: - 340 x[9,8] + f[9,8] >= 0
 VLB[9,10]: - 1249 x[9,10] + f[9,10] >= 0
 VLB[9,11]: - 129 x[9,11] + f[9,11] >= 0
 VLB[9,12]: - 939 x[9,12] + f[9,12] >= 0
 VLB[9,13]: - 768 x[9,13] + f[9,13] >= 0
 VLB[9,14]: - 1037 x[9,14] + f[9,14] >= 0
 VLB[9,15]: - 1529 x[9,15] + f[9,15] >= 0
 VLB[10,1]: f[10,1] >= 0
 VLB[10,2]: - 1378 x[10,2] + f[10,2] >= 0
 VLB[10,3]: - 458 x[10,3] + f[10,3] >= 0
 VLB[10,4]: - 1747 x[10,4] + f[10,4] >= 0
 VLB[10,5]: - 1483 x[10,5] + f[10,5] >= 0
 VLB[10,6]: - 180 x[10,6] + f[10,6] >= 0
 VLB[10,7]: - 1518 x[10,7] + f[10,7] >= 0
 VLB[10,8]: - 340 x[10,8] + f[10,8] >= 0
 VLB[10,9]: - 451 x[10,9] + f[10,9] >= 0
 VLB[10,11]: - 129 x[10,11] + f[10,11] >= 0
 VLB[10,12]: - 939 x[10,12] + f[10,12] >= 0
 VLB[10,13]: - 768 x[10,13] + f[10,13] >= 0
 VLB[10,14]: - 1037 x[10,14] + f[10,14] >= 0
 VLB[10,15]: - 1529 x[10,15] + f[10,15] >= 0
 VLB[11,1]: f[11,1] >= 0
 VLB[11,2]: - 1378 x[11,2] + f[11,2] >= 0
 VLB[11,3]: - 458 x[11,3] + f[11,3] >= 0
 VLB[11,4]: - 1747 x[11,4] + f[11,4] >= 0
 VLB[11,5]: - 1483 x[11,5] + f[11,5] >= 0
 VLB[11,6]: - 180 x[11,6] + f[11,6] >= 0
 VLB[11,7]: - 1518 x[11,7] + f[11,7] >= 0
 VLB[11,8]: - 340 x[11,8] + f[11,8] >= 0
 VLB[11,9]: - 451 x[11,9] + f[11,9] >= 0
 VLB[11,10]: - 1249 x[11,10] + f[11,10] >= 0
 VLB[11,12]: - 939 x[11,12] + f[11,12] >= 0
 VLB[11,13]: - 768 x[11,13] + f[11,13] >= 0
 VLB[11,14]: - 1037 x[11,14] + f[11,14] >= 0
 VLB[11,15]: - 1529 x[11,15] + f[11,15] >= 0
 VLB[12,1]: f[12,1] >= 0
 VLB[12,2]: - 1378 x[12,2] + f[12,2] >= 0
 VLB[12,3]: - 458 x[12,3] + f[12,3] >= 0
 VLB[12,4]: - 1747 x[12,4] + f[12,4] >= 0
 VLB[12,5]: - 1483 x[12,5] + f[12,5] >= 0
 VLB[12,6]: - 180 x[12,6] + f[12,6] >= 0
 VLB[12,7]: - 1518 x[12,7] + f[12,7] >= 0
 VLB[12,8]: - 340 x[12,8] + f[12,8] >= 0
 VLB[12,9]: - 451 x[12,9] + f[12,9] >= 0
 VLB[12,10]: - 1249 x[12,10] + f[12,10] >= 0
 VLB[12,11]: - 129 x[12,11] + f[12,11] >= 0
 VLB[12,13]: - 768 x[12,13] + f[12,13] >= 0
 VLB[12,14]: - 1037 x[12,14] + f[12,14] >= 0
 VLB[12,15]: - 1529 x[12,15] + f[12,15] >= 0
 VLB[13,1]: f[13,1] >= 0
 VLB[13,2]: - 1378 x[13,2] + f[13,2] >= 0
 VLB[13,3]: - 458 x[13,3] + f[13,3] >= 0
 VLB[13,4]: - 1747 x[13,4] + f[13,4] >= 0
 VLB[13,5]: - 1483 x[13,5] + f[13,5] >= 0
 VLB[13,6]: - 180 x[13,6] + f[13,6] >= 0
 VLB[13,7]: - 1518 x[13,7] + f[13,7] >= 0
 VLB[13,8]: - 340 x[13,8] + f[13,8] >= 0
 VLB[13,9]: - 451 x[13,9] + f[13,9] >= 0
 VLB[13,10]: - 1249 x[13,10] + f[13,10] >= 0
 VLB[13,11]: - 129 x[13,11] + f[13,11] >= 0
 VLB[13,12]: - 939 x[13,12] + f[13,12] >= 0
 VLB[13,14]: - 1037 x[13,14] + f[13,14] >= 0
 VLB[13,15]: - 1529 x[13,15] + f[13,15] >= 0
 VLB[14,1]: f[14,1] >= 0
 VLB[14,2]: - 1378 x[14,2] + f[14,2] >= 0
 VLB[14,3]: - 458 x[14,3] + f[14,3] >= 0
 VLB[14,4]: - 1747 x[14,4] + f[14,4] >= 0
 VLB[14,5]: - 1483 x[14,5] + f[14,5] >= 0
 VLB[14,6]: - 180 x[14,6] + f[14,6] >= 0
 VLB[14,7]: - 1518 x[14,7] + f[14,7] >= 0
 VLB[14,8]: - 340 x[14,8] + f[14,8] >= 0
 VLB[14,9]: - 451 x[14,9] + f[14,9] >= 0
 VLB[14,10]: - 1249 x[14,10] + f[14,10] >= 0
 VLB[14,11]: - 129 x[14,11] + f[14,11] >= 0
 VLB[14,12]: - 939 x[14,12] + f[14,12] >= 0
 VLB[14,13]: - 768 x[14,13] + f[14,13] >= 0
 VLB[14,15]: - 1529 x[14,15] + f[14,15] >= 0
 VLB[15,1]: f[15,1] >= 0
 VLB[15,2]: - 1378 x[15,2] + f[15,2] >= 0
 VLB[15,3]: - 458 x[15,3] + f[15,3] >= 0
 VLB[15,4]: - 1747 x[15,4] + f[15,4] >= 0
 VLB[15,5]: - 1483 x[15,5] + f[15,5] >= 0
 VLB[15,6]: - 180 x[15,6] + f[15,6] >= 0
 VLB[15,7]: - 1518 x[15,7] + f[15,7] >= 0
 VLB[15,8]: - 340 x[15,8] + f[15,8] >= 0
 VLB[15,9]: - 451 x[15,9] + f[15,9] >= 0
 VLB[15,10]: - 1249 x[15,10] + f[15,10] >= 0
 VLB[15,11]: - 129 x[15,11] + f[15,11] >= 0
 VLB[15,12]: - 939 x[15,12] + f[15,12] >= 0
 VLB[15,13]: - 768 x[15,13] + f[15,13] >= 0
 VLB[15,14]: - 1037 x[15,14] + f[15,14] >= 0
Bounds
 f[1,2] <= 3000
 f[1,3] <= 3000
 f[1,4] <= 3000
 f[1,5] <= 3000
 f[1,6] <= 3000
 f[1,7] <= 3000
 f[1,8] <= 3000
 f[1,9] <= 3000
 f[1,10] <= 3000
 f[1,11] <= 3000
 f[1,12] <= 3000
 f[1,13] <= 3000
 f[1,14] <= 3000
 f[1,15] <= 3000
 f[2,1] <= 3000
 f[2,3] <= 3000
 f[2,4] <= 3000
 f[2,5] <= 3000
 f[2,6] <= 3000
 f[2,7] <= 3000
 f[2,8] <= 3000
 f[2,9] <= 3000
 f[2,10] <= 3000
 f[2,11] <= 3000
 f[2,12] <= 3000
 f[2,13] <= 3000
 f[2,14] <= 3000
 f[2,15] <= 3000
 f[3,1] <= 3000
 f[3,2] <= 3000
 f[3,4] <= 3000
 f[3,5] <= 3000
 f[3,6] <= 3000
 f[3,7] <= 3000
 f[3,8] <= 3000
 f[3,9] <= 3000
 f[3,10] <= 3000
 f[3,11] <= 3000
 f[3,12] <= 3000
 f[3,13] <= 3000
 f[3,14] <= 3000
 f[3,15] <= 3000
 f[4,1] <= 3000
 f[4,2] <= 3000
 f[4,3] <= 3000
 f[4,5] <= 3000
 f[4,6] <= 3000
 f[4,7] <= 3000
 f[4,8] <= 3000
 f[4,9] <= 3000
 f[4,10] <= 3000
 f[4,11] <= 3000
 f[4,12] <= 3000
 f[4,13] <= 3000
 f[4,14] <= 3000
 f[4,15] <= 3000
 f[5,1] <= 3000
 f[5,2] <= 3000
 f[5,3] <= 3000
 f[5,4] <= 3000
 f[5,6] <= 3000
 f[5,7] <= 3000
 f[5,8] <= 3000
 f[5,9] <= 3000
 f[5,10] <= 3000
 f[5,11] <= 3000
 f[5,12] <= 3000
 f[5,13] <= 3000
 f[5,14] <= 3000
 f[5,15] <= 3000
 f[6,1] <= 3000
 f[6,2] <= 3000
 f[6,3] <= 3000
 f[6,4] <= 3000
 f[6,5] <= 3000
 f[6,7] <= 3000
 f[6,8] <= 3000
 f[6,9] <= 3000
 f[6,10] <= 3000
 f[6,11] <= 3000
 f[6,12] <= 3000
 f[6,13] <= 3000
 f[6,14] <= 3000
 f[6,15] <= 3000
 f[7,1] <= 3000
 f[7,2] <= 3000
 f[7,3] <= 3000
 f[7,4] <= 3000
 f[7,5] <= 3000
 f[7,6] <= 3000
 f[7,8] <= 3000
 f[7,9] <= 3000
 f[7,10] <= 3000
 f[7,11] <= 3000
 f[7,12] <= 3000
 f[7,13] <= 3000
 f[7,14] <= 3000
 f[7,15] <= 3000
 f[8,1] <= 3000
 f[8,2] <= 3000
 f[8,3] <= 3000
 f[8,4] <= 3000
 f[8,5] <= 3000
 f[8,6] <= 3000
 f[8,7] <= 3000
 f[8,9] <= 3000
 f[8,10] <= 3000
 f[8,11] <= 3000
 f[8,12] <= 3000
 f[8,13] <= 3000
 f[8,14] <= 3000
 f[8,15] <= 3000
 f[9,1] <= 3000
 f[9,2] <= 3000
 f[9,3] <= 3000
 f[9,4] <= 3000
 f[9,5] <= 3000
 f[9,6] <= 3000
 f[9,7] <= 3000
 f[9,8] <= 3000
 f[9,10] <= 3000
 f[9,11] <= 3000
 f[9,12] <= 3000
 f[9,13] <= 3000
 f[9,14] <= 3000
 f[9,15] <= 3000
 f[10,1] <= 3000
 f[10,2] <= 3000
 f[10,3] <= 3000
 f[10,4] <= 3000
 f[10,5] <= 3000
 f[10,6] <= 3000
 f[10,7] <= 3000
 f[10,8] <= 3000
 f[10,9] <= 3000
 f[10,11] <= 3000
 f[10,12] <= 3000
 f[10,13] <= 3000
 f[10,14] <= 3000
 f[10,15] <= 3000
 f[11,1] <= 3000
 f[11,2] <= 3000
 f[11,3] <= 3000
 f[11,4] <= 3000
 f[11,5] <= 3000
 f[11,6] <= 3000
 f[11,7] <= 3000
 f[11,8] <= 3000
 f[11,9] <= 3000
 f[11,10] <= 3000
 f[11,12] <= 3000
 f[11,13] <= 3000
 f[11,14] <= 3000
 f[11,15] <= 3000
 f[12,1] <= 3000
 f[12,2] <= 3000
 f[12,3] <= 3000
 f[12,4] <= 3000
 f[12,5] <= 3000
 f[12,6] <= 3000
 f[12,7] <= 3000
 f[12,8] <= 3000
 f[12,9] <= 3000
 f[12,10] <= 3000
 f[12,11] <= 3000
 f[12,13] <= 3000
 f[12,14] <= 3000
 f[12,15] <= 3000
 f[13,1] <= 3000
 f[13,2] <= 3000
 f[13,3] <= 3000
 f[13,4] <= 3000
 f[13,5] <= 3000
 f[13,6] <= 3000
 f[13,7] <= 3000
 f[13,8] <= 3000
 f[13,9] <= 3000
 f[13,10] <= 3000
 f[13,11] <= 3000
 f[13,12] <= 3000
 f[13,14] <= 3000
 f[13,15] <= 3000
 f[14,1] <= 3000
 f[14,2] <= 3000
 f[14,3] <= 3000
 f[14,4] <= 3000
 f[14,5] <= 3000
 f[14,6] <= 3000
 f[14,7] <= 3000
 f[14,8] <= 3000
 f[14,9] <= 3000
 f[14,10] <= 3000
 f[14,11] <= 3000
 f[14,12] <= 3000
 f[14,13] <= 3000
 f[14,15] <= 3000
 f[15,1] <= 3000
 f[15,2] <= 3000
 f[15,3] <= 3000
 f[15,4] <= 3000
 f[15,5] <= 3000
 f[15,6] <= 3000
 f[15,7] <= 3000
 f[15,8] <= 3000
 f[15,9] <= 3000
 f[15,10] <= 3000
 f[15,11] <= 3000
 f[15,12] <= 3000
 f[15,13] <= 3000
 f[15,14] <= 3000
Binaries
 x[1,2] x[1,3] x[1,4] x[1,5] x[1,6] x[1,7] x[1,8] x[1,9] x[1,10] x[1,11]
 x[1,12] x[1,13] x[1,14] x[1,15] x[2,1] x[2,3] x[2,4] x[2,5] x[2,6] x[2,7]
 x[2,8] x[2,9] x[2,10] x[2,11] x[2,12] x[2,13] x[2,14] x[2,15] x[3,1]
 x[3,2] x[3,4] x[3,5] x[3,6] x[3,7] x[3,8] x[3,9] x[3,10] x[3,11] x[3,12]
 x[3,13] x[3,14] x[3,15] x[4,1] x[4,2] x[4,3] x[4,5] x[4,6] x[4,7] x[4,8]
 x[4,9] x[4,10] x[4,11] x[4,12] x[4,13] x[4,14] x[4,15] x[5,1] x[5,2]
 x[5,3] x[5,4] x[5,6] x[5,7] x[5,8] x[5,9] x[5,10] x[5,11] x[5,12] x[5,13]
 x[5,14] x[5,15] x[6,1] x[6,2] x[6,3] x[6,4] x[6,5] x[6,7] x[6,8] x[6,9]
 x[6,10] x[6,11] x[6,12] x[6,13] x[6,14] x[6,15] x[7,1] x[7,2] x[7,3]
 x[7,4] x[7,5] x[7,6] x[7,8] x[7,9] x[7,10] x[7,11] x[7,12] x[7,13] x[7,14]
 x[7,15] x[8,1] x[8,2] x[8,3] x[8,4] x[8,5] x[8,6] x[8,7] x[8,9] x[8,10]
 x[8,11] x[8,12] x[8,13] x[8,14] x[8,15] x[9,1] x[9,2] x[9,3] x[9,4] x[9,5]
 x[9,6] x[9,7] x[9,8] x[9,10] x[9,11] x[9,12] x[9,13] x[9,14] x[9,15]
 x[10,1] x[10,2] x[10,3] x[10,4] x[10,5] x[10,6] x[10,7] x[10,8] x[10,9]
 x[10,11] x[10,12] x[10,13] x[10,14] x[10,15] x[11,1] x[11,2] x[11,3]
 x[11,4] x[11,5] x[11,6] x[11,7] x[11,8] x[11,9] x[11,10] x[11,12] x[11,13]
 x[11,14] x[11,15] x[12,1] x[12,2] x[12,3] x[12,4] x[12,5] x[12,6] x[12,7]
 x[12,8] x[12,9] x[12,10] x[12,11] x[12,13] x[12,14] x[12,15] x[13,1]
 x[13,2] x[13,3] x[13,4] x[13,5] x[13,6] x[13,7] x[13,8] x[13,9] x[13,10]
 x[13,11] x[13,12] x[13,14] x[13,15] x[14,1] x[14,2] x[14,3] x[14,4]
 x[14,5] x[14,6] x[14,7] x[14,8] x[14,9] x[14,10] x[14,11] x[14,12]
 x[14,13] x[14,15] x[15,1] x[15,2] x[15,3] x[15,4] x[15,5] x[15,6] x[15,7]
 x[15,8] x[15,9] x[15,10] x[15,11] x[15,12] x[15,13] x[15,14] x[1,2] x[1,3]
 x[1,4] x[1,5] x[1,6] x[1,7] x[1,8] x[1,9] x[1,10] x[1,11] x[1,12] x[1,13]
 x[1,14] x[1,15] x[2,1] x[2,3] x[2,4] x[2,5] x[2,6] x[2,7] x[2,8] x[2,9]
 x[2,10] x[2,11] x[2,12] x[2,13] x[2,14] x[2,15] x[3,1] x[3,2] x[3,4]
 x[3,5] x[3,6] x[3,7] x[3,8] x[3,9] x[3,10] x[3,11] x[3,12] x[3,13] x[3,14]
 x[3,15] x[4,1] x[4,2] x[4,3] x[4,5] x[4,6] x[4,7] x[4,8] x[4,9] x[4,10]
 x[4,11] x[4,12] x[4,13] x[4,14] x[4,15] x[5,1] x[5,2] x[5,3] x[5,4] x[5,6]
 x[5,7] x[5,8] x[5,9] x[5,10] x[5,11] x[5,12] x[5,13] x[5,14] x[5,15]
 x[6,1] x[6,2] x[6,3] x[6,4] x[6,5] x[6,7] x[6,8] x[6,9] x[6,10] x[6,11]
 x[6,12] x[6,13] x[6,14] x[6,15] x[7,1] x[7,2] x[7,3] x[7,4] x[7,5] x[7,6]
 x[7,8] x[7,9] x[7,10] x[7,11] x[7,12] x[7,13] x[7,14] x[7,15] x[8,1]
 x[8,2] x[8,3] x[8,4] x[8,5] x[8,6] x[8,7] x[8,9] x[8,10] x[8,11] x[8,12]
 x[8,13] x[8,14] x[8,15] x[9,1] x[9,2] x[9,3] x[9,4] x[9,5] x[9,6] x[9,7]
 x[9,8] x[9,10] x[9,11] x[9,12] x[9,13] x[9,14] x[9,15] x[10,1] x[10,2]
 x[10,3] x[10,4] x[10,5] x[10,6] x[10,7] x[10,8] x[10,9] x[10,11] x[10,12]
 x[10,13] x[10,14] x[10,15] x[11,1] x[11,2] x[11,3] x[11,4] x[11,5] x[11,6]
 x[11,7] x[11,8] x[11,9] x[11,10] x[11,12] x[11,13] x[11,14] x[11,15]
 x[12,1] x[12,2] x[12,3] x[12,4] x[12,5] x[12,6] x[12,7] x[12,8] x[12,9]
 x[12,10] x[12,11] x[12,13] x[12,14] x[12,15] x[13,1] x[13,2] x[13,3]
 x[13,4] x[13,5] x[13,6] x[13,7] x[13,8] x[13,9] x[13,10] x[13,11] x[13,12]
 x[13,14] x[13,15] x[14,1] x[14,2] x[14,3] x[14,4] x[14,5] x[14,6] x[14,7]
 x[14,8] x[14,9] x[14,10] x[14,11] x[14,12] x[14,13] x[14,15] x[15,1]
 x[15,2] x[15,3] x[15,4] x[15,5] x[15,6] x[15,7] x[15,8] x[15,9] x[15,10]
 x[15,11] x[15,12] x[15,13] x[15,14]
End
